z3_origin/ball_count_1d_plain.01.redlog_global_4.txt
sat
(:cnf-encoding-aux-vars 8
 :max-memory            18.83
 :memory                18.52
 :nlsat-arith-var       5
 :nlsat-atoms           45
 :nlsat-bool-var        16
 :nlsat-clauses         69
 :nlsat-conflicts       13
 :nlsat-decisions       21
 :nlsat-propagations    79
 :nlsat-stages          15
 :num-allocs            117980
 :rlimit-count          15397
 :solve-eqs-elim-vars   43
 :solve-eqs-steps       118
 :time                  0.01
 :total-time            0.02)
